clingo version 4.5.4
Reading from affinity.lp ...
Solving...
Answer: 1
facet(plumbing) status(plumbing,1) status(plumbing,0) facet(modesty) status(modesty,1) status(modesty,0) facet(kidnapping_princesses) status(kidnapping_princesses,1) status(kidnapping_princesses,0) character(mario) character(bowser) level(modesty,mario,2) level(assertiveness,mario,7) level(impulsivenss,mario,6) level(kidnapping_princesses,mario,1) level(kidnapping_princesses,bowser,9) level(plumbing,mario,9) level(plumbing,2,7) match_n_attribute_level_min(4,kidnapping_princesses,7) match_n_attribute_level_max(4,kidnapping_princesses,4) facet(impulsiveness) status(impulsiveness,1) status(impulsiveness,0) facet(assertiveness) status(assertiveness,1) status(assertiveness,0) attribute_affinity(kidnapping_princesses,1,kidnapping_princesses,1,6) pair_facet_similarity(mario,bowser,-2) attribute_affinity(kidnapping_princesses,1,kidnapping_princesses,-1,-2) attribute_affinity(kidnapping_princesses,-1,kidnapping_princesses,1,-6) status(plumbing,-1) status(modesty,-1) status(kidnapping_princesses,-1) status(impulsiveness,-1) status(assertiveness,-1) attribute_affinity(kidnapping_princesses,-1,kidnapping_princesses,-1,4) similarity(-5) similarity(-4) similarity(-3) similarity(-2) similarity(-1) similarity(0) similarity(1) similarity(2) similarity(3) similarity(4) similarity(5) character(1) character(2) character(3) character(4) character(5) character(6) facet_similarity(-3) facet_similarity(-2) facet_similarity(-1) facet_similarity(0) facet_similarity(1) facet_similarity(2) facet_similarity(3) interest_similarity(-2) interest_similarity(-1) interest_similarity(0) interest_similarity(1) interest_similarity(2) pair_similarity(bowser,mario,-2) pair_similarity(mario,bowser,-2) pair_similarity(1,mario,-1) pair_similarity(mario,1,-1) pair_similarity(2,mario,0) pair_similarity(mario,2,0) pair_similarity(3,mario,0) pair_similarity(mario,3,0) pair_similarity(4,mario,2) pair_similarity(mario,4,2) pair_similarity(5,mario,-1) pair_similarity(mario,5,-1) pair_similarity(6,mario,-1) pair_similarity(mario,6,-1) pair_similarity(1,bowser,0) pair_similarity(bowser,1,0) pair_similarity(2,bowser,0) pair_similarity(bowser,2,0) pair_similarity(3,bowser,-2) pair_similarity(bowser,3,-2) pair_similarity(4,bowser,-3) pair_similarity(bowser,4,-3) pair_similarity(5,bowser,1) pair_similarity(bowser,5,1) pair_similarity(6,bowser,2) pair_similarity(bowser,6,2) pair_similarity(2,1,3) pair_similarity(1,2,3) pair_similarity(3,1,0) pair_similarity(1,3,0) pair_similarity(4,1,-1) pair_similarity(1,4,-1) pair_similarity(5,1,-4) pair_similarity(1,5,-4) pair_similarity(6,1,-2) pair_similarity(1,6,-2) pair_similarity(3,2,-2) pair_similarity(2,3,-2) pair_similarity(4,2,-1) pair_similarity(2,4,-1) pair_similarity(5,2,-4) pair_similarity(2,5,-4) pair_similarity(6,2,-2) pair_similarity(2,6,-2) pair_similarity(4,3,0) pair_similarity(3,4,0) pair_similarity(5,3,-3) pair_similarity(3,5,-3) pair_similarity(6,3,-3) pair_similarity(3,6,-3) pair_similarity(5,4,0) pair_similarity(4,5,0) pair_similarity(6,4,-4) pair_similarity(4,6,-4) pair_similarity(6,5,1) pair_similarity(5,6,1) pair_facet_similarity(mario,1,0) pair_facet_similarity(mario,2,1) pair_facet_similarity(mario,3,-1) pair_facet_similarity(mario,4,2) pair_facet_similarity(mario,5,-1) pair_facet_similarity(mario,6,-1) pair_facet_similarity(bowser,mario,-2) pair_facet_similarity(bowser,1,-2) pair_facet_similarity(bowser,2,-2) pair_facet_similarity(bowser,3,-2) pair_facet_similarity(bowser,4,-1) pair_facet_similarity(bowser,5,2) pair_facet_similarity(bowser,6,1) pair_facet_similarity(1,mario,0) pair_facet_similarity(1,bowser,-2) pair_facet_similarity(1,2,1) pair_facet_similarity(1,3,1) pair_facet_similarity(1,4,1) pair_facet_similarity(5,1,-3) pair_facet_similarity(6,1,-3) pair_facet_similarity(2,mario,1) pair_facet_similarity(2,bowser,-2) pair_facet_similarity(2,1,1) pair_facet_similarity(2,3,-1) pair_facet_similarity(2,4,1) pair_facet_similarity(5,2,-3) pair_facet_similarity(6,2,-3) pair_facet_similarity(3,mario,-1) pair_facet_similarity(3,bowser,-2) pair_facet_similarity(3,1,1) pair_facet_similarity(3,2,-1) pair_facet_similarity(3,4,0) pair_facet_similarity(3,5,-2) pair_facet_similarity(6,3,-3) pair_facet_similarity(4,mario,2) pair_facet_similarity(4,bowser,-1) pair_facet_similarity(4,1,1) pair_facet_similarity(4,2,1) pair_facet_similarity(4,3,0) pair_facet_similarity(4,5,-1) pair_facet_similarity(4,6,-2) pair_facet_similarity(5,mario,-1) pair_facet_similarity(5,bowser,2) pair_facet_similarity(1,5,-3) pair_facet_similarity(2,5,-3) pair_facet_similarity(5,3,-2) pair_facet_similarity(5,4,-1) pair_facet_similarity(5,6,2) pair_facet_similarity(6,mario,-1) pair_facet_similarity(6,bowser,1) pair_facet_similarity(1,6,-3) pair_facet_similarity(2,6,-3) pair_facet_similarity(3,6,-3) pair_facet_similarity(6,4,-2) pair_facet_similarity(6,5,2) pair_interest_similarity(mario,bowser,0) pair_interest_similarity(mario,1,-1) pair_interest_similarity(mario,2,-1) pair_interest_similarity(mario,3,1) pair_interest_similarity(mario,4,0) pair_interest_similarity(mario,5,0) pair_interest_similarity(mario,6,0) pair_interest_similarity(bowser,mario,0) pair_interest_similarity(bowser,1,2) pair_interest_similarity(bowser,2,2) pair_interest_similarity(bowser,3,0) pair_interest_similarity(4,bowser,-2) pair_interest_similarity(bowser,5,-1) pair_interest_similarity(bowser,6,1) pair_interest_similarity(1,mario,-1) pair_interest_similarity(1,bowser,2) pair_interest_similarity(1,2,2) pair_interest_similarity(1,3,-1) pair_interest_similarity(4,1,-2) pair_interest_similarity(1,5,-1) pair_interest_similarity(1,6,1) pair_interest_similarity(2,mario,-1) pair_interest_similarity(2,bowser,2) pair_interest_similarity(2,1,2) pair_interest_similarity(2,3,-1) pair_interest_similarity(4,2,-2) pair_interest_similarity(2,5,-1) pair_interest_similarity(2,6,1) pair_interest_similarity(3,mario,1) pair_interest_similarity(3,bowser,0) pair_interest_similarity(3,1,-1) pair_interest_similarity(3,2,-1) pair_interest_similarity(3,4,0) pair_interest_similarity(3,5,-1) pair_interest_similarity(3,6,0) pair_interest_similarity(4,mario,0) pair_interest_similarity(bowser,4,-2) pair_interest_similarity(1,4,-2) pair_interest_similarity(2,4,-2) pair_interest_similarity(4,3,0) pair_interest_similarity(4,5,1) pair_interest_similarity(6,4,-2) pair_interest_similarity(5,mario,0) pair_interest_similarity(5,bowser,-1) pair_interest_similarity(5,1,-1) pair_interest_similarity(5,2,-1) pair_interest_similarity(5,3,-1) pair_interest_similarity(5,4,1) pair_interest_similarity(5,6,-1) pair_interest_similarity(6,mario,0) pair_interest_similarity(6,bowser,1) pair_interest_similarity(6,1,1) pair_interest_similarity(6,2,1) pair_interest_similarity(6,3,0) pair_interest_similarity(4,6,-2) pair_interest_similarity(6,5,-1) affinity(-10) affinity(-9) affinity(-8) affinity(-7) affinity(-6) affinity(-5) affinity(-4) affinity(-3) affinity(-2) affinity(-1) affinity(0) affinity(1) affinity(2) affinity(3) affinity(4) affinity(5) affinity(6) affinity(7) affinity(8) affinity(9) affinity(10) level_range(1) level_range(2) level_range(3) level_range(4) level_range(5) level_range(6) level_range(7) level_range(8) level_range(9) level_range(10) level(kidnapping_princesses,1,9) level(kidnapping_princesses,2,9) level(kidnapping_princesses,6,7) level(kidnapping_princesses,3,3) level(kidnapping_princesses,4,2) level(kidnapping_princesses,5,1) sim(impulsiveness,bowser,mario,0) sim(modesty,bowser,mario,-1) sim(assertiveness,bowser,mario,-1) sim(modesty,1,mario,1) sim(impulsiveness,1,mario,-1) sim(assertiveness,1,mario,0) sim(assertiveness,2,mario,1) sim(modesty,2,mario,1) sim(impulsiveness,2,mario,-1) sim(impulsiveness,3,mario,-1) sim(modesty,3,mario,0) sim(assertiveness,3,mario,0) sim(modesty,4,mario,1) sim(impulsiveness,4,mario,1) sim(assertiveness,4,mario,0) sim(impulsiveness,5,mario,1) sim(modesty,5,mario,-1) sim(assertiveness,5,mario,-1) sim(impulsiveness,6,mario,1) sim(modesty,6,mario,-1) sim(assertiveness,6,mario,-1) sim(impulsiveness,mario,bowser,0) sim(modesty,mario,bowser,-1) sim(assertiveness,mario,bowser,-1) sim(impulsiveness,1,bowser,0) sim(modesty,1,bowser,-1) sim(assertiveness,1,bowser,-1) sim(impulsiveness,2,bowser,0) sim(modesty,2,bowser,-1) sim(assertiveness,2,bowser,-1) sim(impulsiveness,3,bowser,-1) sim(modesty,3,bowser,0) sim(assertiveness,3,bowser,-1) sim(impulsiveness,4,bowser,1) sim(modesty,4,bowser,-1) sim(assertiveness,4,bowser,-1) sim(assertiveness,5,bowser,1) sim(modesty,5,bowser,1) sim(impulsiveness,5,bowser,0) sim(assertiveness,6,bowser,1) sim(impulsiveness,6,bowser,0) sim(modesty,6,bowser,0) sim(modesty,mario,1,1) sim(impulsiveness,mario,1,-1) sim(assertiveness,mario,1,0) sim(impulsiveness,bowser,1,0) sim(modesty,bowser,1,-1) sim(assertiveness,bowser,1,-1) sim(impulsiveness,2,1,1) sim(modesty,2,1,0) sim(assertiveness,2,1,0) sim(assertiveness,3,1,1) sim(modesty,3,1,1) sim(impulsiveness,3,1,-1) sim(assertiveness,4,1,1) sim(impulsiveness,4,1,0) sim(modesty,4,1,0) sim(impulsiveness,5,1,-1) sim(modesty,5,1,-1) sim(assertiveness,5,1,-1) sim(impulsiveness,6,1,-1) sim(modesty,6,1,-1) sim(assertiveness,6,1,-1) sim(assertiveness,mario,2,1) sim(modesty,mario,2,1) sim(impulsiveness,mario,2,-1) sim(impulsiveness,bowser,2,0) sim(modesty,bowser,2,-1) sim(assertiveness,bowser,2,-1) sim(impulsiveness,1,2,1) sim(modesty,1,2,0) sim(assertiveness,1,2,0) sim(impulsiveness,3,2,-1) sim(modesty,3,2,0) sim(assertiveness,3,2,0) sim(modesty,4,2,1) sim(impulsiveness,4,2,0) sim(assertiveness,4,2,0) sim(impulsiveness,5,2,-1) sim(modesty,5,2,-1) sim(assertiveness,5,2,-1) sim(impulsiveness,6,2,-1) sim(modesty,6,2,-1) sim(assertiveness,6,2,-1) sim(impulsiveness,mario,3,-1) sim(modesty,mario,3,0) sim(assertiveness,mario,3,0) sim(impulsiveness,bowser,3,-1) sim(modesty,bowser,3,0) sim(assertiveness,bowser,3,-1) sim(assertiveness,1,3,1) sim(modesty,1,3,1) sim(impulsiveness,1,3,-1) sim(impulsiveness,2,3,-1) sim(modesty,2,3,0) sim(assertiveness,2,3,0) sim(assertiveness,4,3,1) sim(impulsiveness,4,3,-1) sim(modesty,4,3,0) sim(impulsiveness,5,3,-1) sim(modesty,5,3,0) sim(assertiveness,5,3,-1) sim(impulsiveness,6,3,-1) sim(modesty,6,3,-1) sim(assertiveness,6,3,-1) sim(modesty,mario,4,1) sim(impulsiveness,mario,4,1) sim(assertiveness,mario,4,0) sim(impulsiveness,bowser,4,1) sim(modesty,bowser,4,-1) sim(assertiveness,bowser,4,-1) sim(assertiveness,1,4,1) sim(impulsiveness,1,4,0) sim(modesty,1,4,0) sim(modesty,2,4,1) sim(impulsiveness,2,4,0) sim(assertiveness,2,4,0) sim(assertiveness,3,4,1) sim(impulsiveness,3,4,-1) sim(modesty,3,4,0) sim(impulsiveness,5,4,1) sim(modesty,5,4,-1) sim(assertiveness,5,4,-1) sim(impulsiveness,6,4,0) sim(modesty,6,4,-1) sim(assertiveness,6,4,-1) sim(impulsiveness,mario,5,1) sim(modesty,mario,5,-1) sim(assertiveness,mario,5,-1) sim(assertiveness,bowser,5,1) sim(modesty,bowser,5,1) sim(impulsiveness,bowser,5,0) sim(impulsiveness,1,5,-1) sim(modesty,1,5,-1) sim(assertiveness,1,5,-1) sim(impulsiveness,2,5,-1) sim(modesty,2,5,-1) sim(assertiveness,2,5,-1) sim(impulsiveness,3,5,-1) sim(modesty,3,5,0) sim(assertiveness,3,5,-1) sim(impulsiveness,4,5,1) sim(modesty,4,5,-1) sim(assertiveness,4,5,-1) sim(assertiveness,6,5,1) sim(impulsiveness,6,5,1) sim(modesty,6,5,0) sim(impulsiveness,mario,6,1) sim(modesty,mario,6,-1) sim(assertiveness,mario,6,-1) sim(assertiveness,bowser,6,1) sim(impulsiveness,bowser,6,0) sim(modesty,bowser,6,0) sim(impulsiveness,1,6,-1) sim(modesty,1,6,-1) sim(assertiveness,1,6,-1) sim(impulsiveness,2,6,-1) sim(modesty,2,6,-1) sim(assertiveness,2,6,-1) sim(impulsiveness,3,6,-1) sim(modesty,3,6,-1) sim(assertiveness,3,6,-1) sim(impulsiveness,4,6,0) sim(modesty,4,6,-1) sim(assertiveness,4,6,-1) sim(assertiveness,5,6,1) sim(impulsiveness,5,6,1) sim(modesty,5,6,0) sim(plumbing,bowser,mario,1) sim(kidnapping_princesses,bowser,mario,-1) sim(plumbing,1,mario,0) sim(kidnapping_princesses,1,mario,-1) sim(plumbing,2,mario,0) sim(kidnapping_princesses,2,mario,-1) sim(plumbing,3,mario,1) sim(kidnapping_princesses,3,mario,0) sim(kidnapping_princesses,4,mario,1) sim(plumbing,4,mario,-1) sim(kidnapping_princesses,5,mario,1) sim(plumbing,5,mario,-1) sim(plumbing,6,mario,1) sim(kidnapping_princesses,6,mario,-1) sim(plumbing,mario,bowser,1) sim(kidnapping_princesses,mario,bowser,-1) sim(kidnapping_princesses,1,bowser,1) sim(plumbing,1,bowser,1) sim(kidnapping_princesses,2,bowser,1) sim(plumbing,2,bowser,1) sim(plumbing,3,bowser,1) sim(kidnapping_princesses,3,bowser,-1) sim(plumbing,4,bowser,-1) sim(kidnapping_princesses,4,bowser,-1) sim(plumbing,5,bowser,0) sim(kidnapping_princesses,5,bowser,-1) sim(plumbing,6,bowser,1) sim(kidnapping_princesses,6,bowser,0) sim(plumbing,mario,1,0) sim(kidnapping_princesses,mario,1,-1) sim(kidnapping_princesses,bowser,1,1) sim(plumbing,bowser,1,1) sim(kidnapping_princesses,2,1,1) sim(plumbing,2,1,1) sim(plumbing,3,1,0) sim(kidnapping_princesses,3,1,-1) sim(plumbing,4,1,-1) sim(kidnapping_princesses,4,1,-1) sim(plumbing,5,1,0) sim(kidnapping_princesses,5,1,-1) sim(plumbing,6,1,1) sim(kidnapping_princesses,6,1,0) sim(plumbing,mario,2,0) sim(kidnapping_princesses,mario,2,-1) sim(kidnapping_princesses,bowser,2,1) sim(plumbing,bowser,2,1) sim(kidnapping_princesses,1,2,1) sim(plumbing,1,2,1) sim(plumbing,3,2,0) sim(kidnapping_princesses,3,2,-1) sim(plumbing,4,2,-1) sim(kidnapping_princesses,4,2,-1) sim(plumbing,5,2,0) sim(kidnapping_princesses,5,2,-1) sim(plumbing,6,2,1) sim(kidnapping_princesses,6,2,0) sim(plumbing,mario,3,1) sim(kidnapping_princesses,mario,3,0) sim(plumbing,bowser,3,1) sim(kidnapping_princesses,bowser,3,-1) sim(plumbing,1,3,0) sim(kidnapping_princesses,1,3,-1) sim(plumbing,2,3,0) sim(kidnapping_princesses,2,3,-1) sim(kidnapping_princesses,4,3,1) sim(plumbing,4,3,-1) sim(plumbing,5,3,-1) sim(kidnapping_princesses,5,3,0) sim(plumbing,6,3,1) sim(kidnapping_princesses,6,3,-1) sim(kidnapping_princesses,mario,4,1) sim(plumbing,mario,4,-1) sim(plumbing,bowser,4,-1) sim(kidnapping_princesses,bowser,4,-1) sim(plumbing,1,4,-1) sim(kidnapping_princesses,1,4,-1) sim(plumbing,2,4,-1) sim(kidnapping_princesses,2,4,-1) sim(kidnapping_princesses,3,4,1) sim(plumbing,3,4,-1) sim(kidnapping_princesses,5,4,1) sim(plumbing,5,4,0) sim(plumbing,6,4,-1) sim(kidnapping_princesses,6,4,-1) sim(kidnapping_princesses,mario,5,1) sim(plumbing,mario,5,-1) sim(plumbing,bowser,5,0) sim(kidnapping_princesses,bowser,5,-1) sim(plumbing,1,5,0) sim(kidnapping_princesses,1,5,-1) sim(plumbing,2,5,0) sim(kidnapping_princesses,2,5,-1) sim(plumbing,3,5,-1) sim(kidnapping_princesses,3,5,0) sim(kidnapping_princesses,4,5,1) sim(plumbing,4,5,0) sim(plumbing,6,5,0) sim(kidnapping_princesses,6,5,-1) sim(plumbing,mario,6,1) sim(kidnapping_princesses,mario,6,-1) sim(plumbing,bowser,6,1) sim(kidnapping_princesses,bowser,6,0) sim(plumbing,1,6,1) sim(kidnapping_princesses,1,6,0) sim(plumbing,2,6,1) sim(kidnapping_princesses,2,6,0) sim(plumbing,3,6,1) sim(kidnapping_princesses,3,6,-1) sim(plumbing,4,6,-1) sim(kidnapping_princesses,4,6,-1) sim(plumbing,5,6,0) sim(kidnapping_princesses,5,6,-1) level(plumbing,bowser,8) level(plumbing,1,7) level(plumbing,3,9) level(plumbing,4,3) level(plumbing,5,5) level(plumbing,6,8) level(modesty,bowser,7) level(modesty,1,3) level(modesty,2,1) level(modesty,3,4) level(modesty,4,1) level(modesty,5,7) level(modesty,6,10) level(impulsiveness,bowser,4) level(impulsiveness,mario,2) level(impulsiveness,1,6) level(impulsiveness,2,6) level(impulsiveness,3,10) level(impulsiveness,4,3) level(impulsiveness,5,2) level(impulsiveness,6,1) level(assertiveness,bowser,1) level(assertiveness,1,9) level(assertiveness,2,7) level(assertiveness,3,10) level(assertiveness,4,10) level(assertiveness,5,1) level(assertiveness,6,2) def(-1,1) def(-1,2) def(-1,3) def(0,4) def(0,5) def(0,6) def(1,7) def(1,8) def(1,9) def(1,10) pair_affinity(mario,bowser,-8) pair_affinity(mario,1,-7) pair_affinity(mario,2,-6) pair_affinity(mario,3,4) pair_affinity(mario,4,6) pair_affinity(mario,5,3) pair_affinity(mario,6,-7) pair_affinity(bowser,mario,-4) pair_affinity(bowser,1,6) pair_affinity(bowser,2,6) pair_affinity(bowser,3,-4) pair_affinity(bowser,4,-5) pair_affinity(bowser,5,-1) pair_affinity(bowser,6,8) pair_affinity(1,mario,-3) pair_affinity(1,bowser,6) pair_affinity(1,2,9) pair_affinity(1,3,-2) pair_affinity(1,4,-3) pair_affinity(1,5,-6) pair_affinity(1,6,4) pair_affinity(2,mario,-2) pair_affinity(2,bowser,6) pair_affinity(2,1,9) pair_affinity(2,3,-4) pair_affinity(2,4,-3) pair_affinity(2,5,-6) pair_affinity(2,6,4) pair_affinity(3,mario,4) pair_affinity(3,bowser,-8) pair_affinity(3,1,-6) pair_affinity(3,2,-8) pair_affinity(3,4,4) pair_affinity(3,5,1) pair_affinity(3,6,-9) pair_affinity(4,mario,6) pair_affinity(4,bowser,-9) pair_affinity(4,1,-7) pair_affinity(4,2,-7) pair_affinity(4,3,4) pair_affinity(4,5,4) pair_affinity(4,6,-10) pair_affinity(5,mario,3) pair_affinity(5,bowser,-5) pair_affinity(5,1,-10) pair_affinity(5,2,-10) pair_affinity(5,3,1) pair_affinity(5,4,4) pair_affinity(5,6,-5) pair_affinity(6,mario,-3) pair_affinity(6,bowser,8) pair_affinity(6,1,4) pair_affinity(6,2,4) pair_affinity(6,3,-5) pair_affinity(6,4,-6) pair_affinity(6,5,-1)
SATISFIABLE

Models       : 1+    
Calls        : 1
Time         : 70.340s (Solving: 11.98s 1st Model: 11.97s Unsat: 0.00s)
CPU Time     : 69.320s
